golf/golfers1.fzn
predicate all_different_int(array [int] of var int: x);
array [1..2] of int: X_INTRODUCED_180_ = [1,-1];
var 1..10: X_INTRODUCED_0_;
var 1..10: X_INTRODUCED_1_;
var 1..10: X_INTRODUCED_2_;
var 1..10: X_INTRODUCED_3_;
var 1..10: X_INTRODUCED_4_;
var 1..10: X_INTRODUCED_5_;
var 1..10: X_INTRODUCED_6_;
var 1..10: X_INTRODUCED_7_;
var 1..10: X_INTRODUCED_8_;
var 1..10: X_INTRODUCED_9_;
var 1..10: X_INTRODUCED_10_;
var 1..10: X_INTRODUCED_11_;
var 1..10: X_INTRODUCED_12_;
var 1..10: X_INTRODUCED_13_;
var 1..10: X_INTRODUCED_14_;
var 1..10: X_INTRODUCED_15_;
var 1..10: X_INTRODUCED_16_;
var 1..10: X_INTRODUCED_17_;
var 1..10: X_INTRODUCED_18_;
var 1..10: X_INTRODUCED_19_;
var 1..10: X_INTRODUCED_20_;
var 1..10: X_INTRODUCED_21_;
var 1..10: X_INTRODUCED_22_;
var 1..10: X_INTRODUCED_23_;
var 1..10: X_INTRODUCED_24_;
var 1..10: X_INTRODUCED_25_;
var 1..10: X_INTRODUCED_26_;
var 1..10: X_INTRODUCED_27_;
var 1..10: X_INTRODUCED_28_;
var 1..10: X_INTRODUCED_29_;
var 1..10: X_INTRODUCED_30_;
var 1..10: X_INTRODUCED_31_;
var 1..10: X_INTRODUCED_32_;
var 1..10: X_INTRODUCED_33_;
var 1..10: X_INTRODUCED_34_;
var 1..10: X_INTRODUCED_35_;
var 1..10: X_INTRODUCED_36_;
var 1..10: X_INTRODUCED_37_;
var 1..10: X_INTRODUCED_38_;
var 1..10: X_INTRODUCED_39_;
var 1..10: X_INTRODUCED_40_;
var 1..10: X_INTRODUCED_41_;
var 1..10: X_INTRODUCED_42_;
var 1..10: X_INTRODUCED_43_;
var 1..10: X_INTRODUCED_44_;
var 1..10: X_INTRODUCED_45_;
var 1..10: X_INTRODUCED_46_;
var 1..10: X_INTRODUCED_47_;
var 1..10: X_INTRODUCED_48_;
var 1..10: X_INTRODUCED_49_;
var 1..10: X_INTRODUCED_50_;
var 1..10: X_INTRODUCED_51_;
var 1..10: X_INTRODUCED_52_;
var 1..10: X_INTRODUCED_53_;
var 1..10: X_INTRODUCED_54_;
var 1..10: X_INTRODUCED_55_;
var 1..10: X_INTRODUCED_56_;
var 1..10: X_INTRODUCED_57_;
var 1..10: X_INTRODUCED_58_;
var 1..10: X_INTRODUCED_59_;
var 1..10: X_INTRODUCED_60_;
var 1..10: X_INTRODUCED_61_;
var 1..10: X_INTRODUCED_62_;
var 1..10: X_INTRODUCED_63_;
var 1..10: X_INTRODUCED_64_;
var 1..10: X_INTRODUCED_65_;
var 1..10: X_INTRODUCED_66_;
var 1..10: X_INTRODUCED_67_;
var 1..10: X_INTRODUCED_68_;
var 1..10: X_INTRODUCED_69_;
var 1..10: X_INTRODUCED_70_;
var 1..10: X_INTRODUCED_71_;
var 1..10: X_INTRODUCED_72_;
var 1..10: X_INTRODUCED_73_;
var 1..10: X_INTRODUCED_74_;
var 1..10: X_INTRODUCED_75_;
var 1..10: X_INTRODUCED_76_;
var 1..10: X_INTRODUCED_77_;
var 1..10: X_INTRODUCED_78_;
var 1..10: X_INTRODUCED_79_;
var 0..8: X_INTRODUCED_80_;
var 0..8: X_INTRODUCED_81_;
var 0..8: X_INTRODUCED_82_;
var 0..8: X_INTRODUCED_83_;
var 0..8: X_INTRODUCED_84_;
var 0..8: X_INTRODUCED_85_;
var 0..8: X_INTRODUCED_86_;
var 0..8: X_INTRODUCED_87_;
var 0..8: X_INTRODUCED_88_;
var 0..8: X_INTRODUCED_89_;
var 0..8: X_INTRODUCED_90_;
var 0..8: X_INTRODUCED_91_;
var 0..8: X_INTRODUCED_92_;
var 0..8: X_INTRODUCED_93_;
var 0..8: X_INTRODUCED_94_;
var 0..8: X_INTRODUCED_95_;
var 0..8: X_INTRODUCED_96_;
var 0..8: X_INTRODUCED_97_;
var 0..8: X_INTRODUCED_98_;
var 0..8: X_INTRODUCED_99_;
var 0..8: X_INTRODUCED_100_;
var 0..8: X_INTRODUCED_101_;
var 0..8: X_INTRODUCED_102_;
var 0..8: X_INTRODUCED_103_;
var 0..8: X_INTRODUCED_104_;
var 0..8: X_INTRODUCED_105_;
var 0..8: X_INTRODUCED_106_;
var 0..8: X_INTRODUCED_107_;
var 0..8: X_INTRODUCED_108_;
var 0..8: X_INTRODUCED_109_;
var 0..8: X_INTRODUCED_110_;
var 0..8: X_INTRODUCED_111_;
var 0..8: X_INTRODUCED_112_;
var 0..8: X_INTRODUCED_113_;
var 0..8: X_INTRODUCED_114_;
var 0..8: X_INTRODUCED_115_;
var 0..8: X_INTRODUCED_116_;
var 0..8: X_INTRODUCED_117_;
var 0..8: X_INTRODUCED_118_;
var 0..8: X_INTRODUCED_119_;
var 0..8: X_INTRODUCED_120_;
var 0..8: X_INTRODUCED_121_;
var 0..8: X_INTRODUCED_122_;
var 0..8: X_INTRODUCED_123_;
var 0..8: X_INTRODUCED_124_;
var 0..8: X_INTRODUCED_125_;
var 0..8: X_INTRODUCED_126_;
var 0..8: X_INTRODUCED_127_;
var 0..8: X_INTRODUCED_128_;
var 0..8: X_INTRODUCED_129_;
var 0..8: X_INTRODUCED_130_;
var 0..8: X_INTRODUCED_131_;
var 0..8: X_INTRODUCED_132_;
var 0..8: X_INTRODUCED_133_;
var 0..8: X_INTRODUCED_134_;
var 0..8: X_INTRODUCED_135_;
var 0..8: X_INTRODUCED_136_;
var 0..8: X_INTRODUCED_137_;
var 0..8: X_INTRODUCED_138_;
var 0..8: X_INTRODUCED_139_;
var 0..8: X_INTRODUCED_140_;
var 0..8: X_INTRODUCED_141_;
var 0..8: X_INTRODUCED_142_;
var 0..8: X_INTRODUCED_143_;
var 0..8: X_INTRODUCED_144_;
var 0..8: X_INTRODUCED_145_;
var 0..8: X_INTRODUCED_146_;
var 0..8: X_INTRODUCED_147_;
var 0..8: X_INTRODUCED_148_;
var 0..8: X_INTRODUCED_149_;
var 0..8: X_INTRODUCED_150_;
var 0..8: X_INTRODUCED_151_;
var 0..8: X_INTRODUCED_152_;
var 0..8: X_INTRODUCED_153_;
var 0..8: X_INTRODUCED_154_;
var 0..8: X_INTRODUCED_155_;
var 0..8: X_INTRODUCED_156_;
var 0..8: X_INTRODUCED_157_;
var 0..8: X_INTRODUCED_158_;
var 0..8: X_INTRODUCED_159_;
var 0..8: X_INTRODUCED_160_;
var 0..8: X_INTRODUCED_161_;
var 0..8: X_INTRODUCED_162_;
var 0..8: X_INTRODUCED_163_;
var 0..8: X_INTRODUCED_164_;
var 0..8: X_INTRODUCED_165_;
var 0..8: X_INTRODUCED_166_;
var 0..8: X_INTRODUCED_167_;
var 0..8: X_INTRODUCED_168_;
var 0..8: X_INTRODUCED_169_;
var 0..8: X_INTRODUCED_170_;
var 0..8: X_INTRODUCED_171_;
var 0..8: X_INTRODUCED_172_;
var 0..8: X_INTRODUCED_173_;
var 0..8: X_INTRODUCED_174_;
var 0..8: X_INTRODUCED_175_;
var 0..8: X_INTRODUCED_176_;
var 0..8: X_INTRODUCED_177_;
var 0..8: X_INTRODUCED_178_;
var 0..8: X_INTRODUCED_179_;
var 1..100: X_INTRODUCED_183_ ::var_is_introduced :: is_defined_var;
var 1..100: X_INTRODUCED_185_ ::var_is_introduced :: is_defined_var;
var 1..100: X_INTRODUCED_187_ ::var_is_introduced :: is_defined_var;
var 1..100: X_INTRODUCED_189_ ::var_is_introduced :: is_defined_var;
var 1..100: X_INTRODUCED_191_ ::var_is_introduced :: is_defined_var;
var 1..100: X_INTRODUCED_193_ ::var_is_introduced :: is_defined_var;
var 1..100: X_INTRODUCED_195_ ::var_is_introduced :: is_defined_var;
var 1..100: X_INTRODUCED_197_ ::var_is_introduced :: is_defined_var;
var 1..100: X_INTRODUCED_199_ ::var_is_introduced :: is_defined_var;
var 1..100: X_INTRODUCED_201_ ::var_is_introduced :: is_defined_var;
var 1..100: X_INTRODUCED_203_ ::var_is_introduced :: is_defined_var;
var 1..100: X_INTRODUCED_205_ ::var_is_introduced :: is_defined_var;
var 1..100: X_INTRODUCED_207_ ::var_is_introduced :: is_defined_var;
var 1..100: X_INTRODUCED_209_ ::var_is_introduced :: is_defined_var;
var 1..100: X_INTRODUCED_211_ ::var_is_introduced :: is_defined_var;
var 1..100: X_INTRODUCED_213_ ::var_is_introduced :: is_defined_var;
var 1..100: X_INTRODUCED_215_ ::var_is_introduced :: is_defined_var;
var 1..100: X_INTRODUCED_217_ ::var_is_introduced :: is_defined_var;
var 1..100: X_INTRODUCED_219_ ::var_is_introduced :: is_defined_var;
var 1..100: X_INTRODUCED_221_ ::var_is_introduced :: is_defined_var;
var 1..100: X_INTRODUCED_223_ ::var_is_introduced :: is_defined_var;
var 1..100: X_INTRODUCED_225_ ::var_is_introduced :: is_defined_var;
var 1..100: X_INTRODUCED_227_ ::var_is_introduced :: is_defined_var;
var 1..100: X_INTRODUCED_229_ ::var_is_introduced :: is_defined_var;
var 1..100: X_INTRODUCED_231_ ::var_is_introduced :: is_defined_var;
var 1..100: X_INTRODUCED_233_ ::var_is_introduced :: is_defined_var;
var 1..100: X_INTRODUCED_235_ ::var_is_introduced :: is_defined_var;
var 1..100: X_INTRODUCED_237_ ::var_is_introduced :: is_defined_var;
var 1..100: X_INTRODUCED_239_ ::var_is_introduced :: is_defined_var;
var 1..100: X_INTRODUCED_241_ ::var_is_introduced :: is_defined_var;
var 1..100: X_INTRODUCED_243_ ::var_is_introduced :: is_defined_var;
var 1..100: X_INTRODUCED_245_ ::var_is_introduced :: is_defined_var;
var 1..100: X_INTRODUCED_247_ ::var_is_introduced :: is_defined_var;
var 1..100: X_INTRODUCED_249_ ::var_is_introduced :: is_defined_var;
var 1..100: X_INTRODUCED_251_ ::var_is_introduced :: is_defined_var;
var 1..100: X_INTRODUCED_253_ ::var_is_introduced :: is_defined_var;
var 1..100: X_INTRODUCED_255_ ::var_is_introduced :: is_defined_var;
var 1..100: X_INTRODUCED_257_ ::var_is_introduced :: is_defined_var;
var 1..100: X_INTRODUCED_259_ ::var_is_introduced :: is_defined_var;
var 1..100: X_INTRODUCED_261_ ::var_is_introduced :: is_defined_var;
array [1..80] of var int: round_place_golfer:: output_array([1..8,1..10]) = [X_INTRODUCED_0_,X_INTRODUCED_1_,X_INTRODUCED_2_,X_INTRODUCED_3_,X_INTRODUCED_4_,X_INTRODUCED_5_,X_INTRODUCED_6_,X_INTRODUCED_7_,X_INTRODUCED_8_,X_INTRODUCED_9_,X_INTRODUCED_10_,X_INTRODUCED_11_,X_INTRODUCED_12_,X_INTRODUCED_13_,X_INTRODUCED_14_,X_INTRODUCED_15_,X_INTRODUCED_16_,X_INTRODUCED_17_,X_INTRODUCED_18_,X_INTRODUCED_19_,X_INTRODUCED_20_,X_INTRODUCED_21_,X_INTRODUCED_22_,X_INTRODUCED_23_,X_INTRODUCED_24_,X_INTRODUCED_25_,X_INTRODUCED_26_,X_INTRODUCED_27_,X_INTRODUCED_28_,X_INTRODUCED_29_,X_INTRODUCED_30_,X_INTRODUCED_31_,X_INTRODUCED_32_,X_INTRODUCED_33_,X_INTRODUCED_34_,X_INTRODUCED_35_,X_INTRODUCED_36_,X_INTRODUCED_37_,X_INTRODUCED_38_,X_INTRODUCED_39_,X_INTRODUCED_40_,X_INTRODUCED_41_,X_INTRODUCED_42_,X_INTRODUCED_43_,X_INTRODUCED_44_,X_INTRODUCED_45_,X_INTRODUCED_46_,X_INTRODUCED_47_,X_INTRODUCED_48_,X_INTRODUCED_49_,X_INTRODUCED_50_,X_INTRODUCED_51_,X_INTRODUCED_52_,X_INTRODUCED_53_,X_INTRODUCED_54_,X_INTRODUCED_55_,X_INTRODUCED_56_,X_INTRODUCED_57_,X_INTRODUCED_58_,X_INTRODUCED_59_,X_INTRODUCED_60_,X_INTRODUCED_61_,X_INTRODUCED_62_,X_INTRODUCED_63_,X_INTRODUCED_64_,X_INTRODUCED_65_,X_INTRODUCED_66_,X_INTRODUCED_67_,X_INTRODUCED_68_,X_INTRODUCED_69_,X_INTRODUCED_70_,X_INTRODUCED_71_,X_INTRODUCED_72_,X_INTRODUCED_73_,X_INTRODUCED_74_,X_INTRODUCED_75_,X_INTRODUCED_76_,X_INTRODUCED_77_,X_INTRODUCED_78_,X_INTRODUCED_79_];
array [1..100] of var int: X_INTRODUCED_181_ ::var_is_introduced  = [X_INTRODUCED_80_,X_INTRODUCED_81_,X_INTRODUCED_82_,X_INTRODUCED_83_,X_INTRODUCED_84_,X_INTRODUCED_85_,X_INTRODUCED_86_,X_INTRODUCED_87_,X_INTRODUCED_88_,X_INTRODUCED_89_,X_INTRODUCED_90_,X_INTRODUCED_91_,X_INTRODUCED_92_,X_INTRODUCED_93_,X_INTRODUCED_94_,X_INTRODUCED_95_,X_INTRODUCED_96_,X_INTRODUCED_97_,X_INTRODUCED_98_,X_INTRODUCED_99_,X_INTRODUCED_100_,X_INTRODUCED_101_,X_INTRODUCED_102_,X_INTRODUCED_103_,X_INTRODUCED_104_,X_INTRODUCED_105_,X_INTRODUCED_106_,X_INTRODUCED_107_,X_INTRODUCED_108_,X_INTRODUCED_109_,X_INTRODUCED_110_,X_INTRODUCED_111_,X_INTRODUCED_112_,X_INTRODUCED_113_,X_INTRODUCED_114_,X_INTRODUCED_115_,X_INTRODUCED_116_,X_INTRODUCED_117_,X_INTRODUCED_118_,X_INTRODUCED_119_,X_INTRODUCED_120_,X_INTRODUCED_121_,X_INTRODUCED_122_,X_INTRODUCED_123_,X_INTRODUCED_124_,X_INTRODUCED_125_,X_INTRODUCED_126_,X_INTRODUCED_127_,X_INTRODUCED_128_,X_INTRODUCED_129_,X_INTRODUCED_130_,X_INTRODUCED_131_,X_INTRODUCED_132_,X_INTRODUCED_133_,X_INTRODUCED_134_,X_INTRODUCED_135_,X_INTRODUCED_136_,X_INTRODUCED_137_,X_INTRODUCED_138_,X_INTRODUCED_139_,X_INTRODUCED_140_,X_INTRODUCED_141_,X_INTRODUCED_142_,X_INTRODUCED_143_,X_INTRODUCED_144_,X_INTRODUCED_145_,X_INTRODUCED_146_,X_INTRODUCED_147_,X_INTRODUCED_148_,X_INTRODUCED_149_,X_INTRODUCED_150_,X_INTRODUCED_151_,X_INTRODUCED_152_,X_INTRODUCED_153_,X_INTRODUCED_154_,X_INTRODUCED_155_,X_INTRODUCED_156_,X_INTRODUCED_157_,X_INTRODUCED_158_,X_INTRODUCED_159_,X_INTRODUCED_160_,X_INTRODUCED_161_,X_INTRODUCED_162_,X_INTRODUCED_163_,X_INTRODUCED_164_,X_INTRODUCED_165_,X_INTRODUCED_166_,X_INTRODUCED_167_,X_INTRODUCED_168_,X_INTRODUCED_169_,X_INTRODUCED_170_,X_INTRODUCED_171_,X_INTRODUCED_172_,X_INTRODUCED_173_,X_INTRODUCED_174_,X_INTRODUCED_175_,X_INTRODUCED_176_,X_INTRODUCED_177_,X_INTRODUCED_178_,X_INTRODUCED_179_];
array [1..80] of var int: X_INTRODUCED_263_ ::var_is_introduced  = [X_INTRODUCED_0_,X_INTRODUCED_1_,X_INTRODUCED_2_,X_INTRODUCED_3_,X_INTRODUCED_4_,X_INTRODUCED_5_,X_INTRODUCED_6_,X_INTRODUCED_7_,X_INTRODUCED_8_,X_INTRODUCED_9_,X_INTRODUCED_10_,X_INTRODUCED_11_,X_INTRODUCED_12_,X_INTRODUCED_13_,X_INTRODUCED_14_,X_INTRODUCED_15_,X_INTRODUCED_16_,X_INTRODUCED_17_,X_INTRODUCED_18_,X_INTRODUCED_19_,X_INTRODUCED_20_,X_INTRODUCED_21_,X_INTRODUCED_22_,X_INTRODUCED_23_,X_INTRODUCED_24_,X_INTRODUCED_25_,X_INTRODUCED_26_,X_INTRODUCED_27_,X_INTRODUCED_28_,X_INTRODUCED_29_,X_INTRODUCED_30_,X_INTRODUCED_31_,X_INTRODUCED_32_,X_INTRODUCED_33_,X_INTRODUCED_34_,X_INTRODUCED_35_,X_INTRODUCED_36_,X_INTRODUCED_37_,X_INTRODUCED_38_,X_INTRODUCED_39_,X_INTRODUCED_40_,X_INTRODUCED_41_,X_INTRODUCED_42_,X_INTRODUCED_43_,X_INTRODUCED_44_,X_INTRODUCED_45_,X_INTRODUCED_46_,X_INTRODUCED_47_,X_INTRODUCED_48_,X_INTRODUCED_49_,X_INTRODUCED_50_,X_INTRODUCED_51_,X_INTRODUCED_52_,X_INTRODUCED_53_,X_INTRODUCED_54_,X_INTRODUCED_55_,X_INTRODUCED_56_,X_INTRODUCED_57_,X_INTRODUCED_58_,X_INTRODUCED_59_,X_INTRODUCED_60_,X_INTRODUCED_61_,X_INTRODUCED_62_,X_INTRODUCED_63_,X_INTRODUCED_64_,X_INTRODUCED_65_,X_INTRODUCED_66_,X_INTRODUCED_67_,X_INTRODUCED_68_,X_INTRODUCED_69_,X_INTRODUCED_70_,X_INTRODUCED_71_,X_INTRODUCED_72_,X_INTRODUCED_73_,X_INTRODUCED_74_,X_INTRODUCED_75_,X_INTRODUCED_76_,X_INTRODUCED_77_,X_INTRODUCED_78_,X_INTRODUCED_79_];
constraint all_different_int([X_INTRODUCED_0_,X_INTRODUCED_1_,X_INTRODUCED_2_,X_INTRODUCED_3_,X_INTRODUCED_4_,X_INTRODUCED_5_,X_INTRODUCED_6_,X_INTRODUCED_7_,X_INTRODUCED_8_,X_INTRODUCED_9_]);
constraint all_different_int([X_INTRODUCED_10_,X_INTRODUCED_11_,X_INTRODUCED_12_,X_INTRODUCED_13_,X_INTRODUCED_14_,X_INTRODUCED_15_,X_INTRODUCED_16_,X_INTRODUCED_17_,X_INTRODUCED_18_,X_INTRODUCED_19_]);
constraint all_different_int([X_INTRODUCED_20_,X_INTRODUCED_21_,X_INTRODUCED_22_,X_INTRODUCED_23_,X_INTRODUCED_24_,X_INTRODUCED_25_,X_INTRODUCED_26_,X_INTRODUCED_27_,X_INTRODUCED_28_,X_INTRODUCED_29_]);
constraint all_different_int([X_INTRODUCED_30_,X_INTRODUCED_31_,X_INTRODUCED_32_,X_INTRODUCED_33_,X_INTRODUCED_34_,X_INTRODUCED_35_,X_INTRODUCED_36_,X_INTRODUCED_37_,X_INTRODUCED_38_,X_INTRODUCED_39_]);
constraint all_different_int([X_INTRODUCED_40_,X_INTRODUCED_41_,X_INTRODUCED_42_,X_INTRODUCED_43_,X_INTRODUCED_44_,X_INTRODUCED_45_,X_INTRODUCED_46_,X_INTRODUCED_47_,X_INTRODUCED_48_,X_INTRODUCED_49_]);
constraint all_different_int([X_INTRODUCED_50_,X_INTRODUCED_51_,X_INTRODUCED_52_,X_INTRODUCED_53_,X_INTRODUCED_54_,X_INTRODUCED_55_,X_INTRODUCED_56_,X_INTRODUCED_57_,X_INTRODUCED_58_,X_INTRODUCED_59_]);
constraint all_different_int([X_INTRODUCED_60_,X_INTRODUCED_61_,X_INTRODUCED_62_,X_INTRODUCED_63_,X_INTRODUCED_64_,X_INTRODUCED_65_,X_INTRODUCED_66_,X_INTRODUCED_67_,X_INTRODUCED_68_,X_INTRODUCED_69_]);
constraint all_different_int([X_INTRODUCED_70_,X_INTRODUCED_71_,X_INTRODUCED_72_,X_INTRODUCED_73_,X_INTRODUCED_74_,X_INTRODUCED_75_,X_INTRODUCED_76_,X_INTRODUCED_77_,X_INTRODUCED_78_,X_INTRODUCED_79_]);
constraint int_lin_le(X_INTRODUCED_180_,[X_INTRODUCED_0_,X_INTRODUCED_1_],-1);
constraint int_lin_le(X_INTRODUCED_180_,[X_INTRODUCED_2_,X_INTRODUCED_3_],-1);
constraint int_lin_le(X_INTRODUCED_180_,[X_INTRODUCED_4_,X_INTRODUCED_5_],-1);
constraint int_lin_le(X_INTRODUCED_180_,[X_INTRODUCED_6_,X_INTRODUCED_7_],-1);
constraint int_lin_le(X_INTRODUCED_180_,[X_INTRODUCED_8_,X_INTRODUCED_9_],-1);
constraint int_lin_le(X_INTRODUCED_180_,[X_INTRODUCED_10_,X_INTRODUCED_11_],-1);
constraint int_lin_le(X_INTRODUCED_180_,[X_INTRODUCED_12_,X_INTRODUCED_13_],-1);
constraint int_lin_le(X_INTRODUCED_180_,[X_INTRODUCED_14_,X_INTRODUCED_15_],-1);
constraint int_lin_le(X_INTRODUCED_180_,[X_INTRODUCED_16_,X_INTRODUCED_17_],-1);
constraint int_lin_le(X_INTRODUCED_180_,[X_INTRODUCED_18_,X_INTRODUCED_19_],-1);
constraint int_lin_le(X_INTRODUCED_180_,[X_INTRODUCED_20_,X_INTRODUCED_21_],-1);
constraint int_lin_le(X_INTRODUCED_180_,[X_INTRODUCED_22_,X_INTRODUCED_23_],-1);
constraint int_lin_le(X_INTRODUCED_180_,[X_INTRODUCED_24_,X_INTRODUCED_25_],-1);
constraint int_lin_le(X_INTRODUCED_180_,[X_INTRODUCED_26_,X_INTRODUCED_27_],-1);
constraint int_lin_le(X_INTRODUCED_180_,[X_INTRODUCED_28_,X_INTRODUCED_29_],-1);
constraint int_lin_le(X_INTRODUCED_180_,[X_INTRODUCED_30_,X_INTRODUCED_31_],-1);
constraint int_lin_le(X_INTRODUCED_180_,[X_INTRODUCED_32_,X_INTRODUCED_33_],-1);
constraint int_lin_le(X_INTRODUCED_180_,[X_INTRODUCED_34_,X_INTRODUCED_35_],-1);
constraint int_lin_le(X_INTRODUCED_180_,[X_INTRODUCED_36_,X_INTRODUCED_37_],-1);
constraint int_lin_le(X_INTRODUCED_180_,[X_INTRODUCED_38_,X_INTRODUCED_39_],-1);
constraint int_lin_le(X_INTRODUCED_180_,[X_INTRODUCED_40_,X_INTRODUCED_41_],-1);
constraint int_lin_le(X_INTRODUCED_180_,[X_INTRODUCED_42_,X_INTRODUCED_43_],-1);
constraint int_lin_le(X_INTRODUCED_180_,[X_INTRODUCED_44_,X_INTRODUCED_45_],-1);
constraint int_lin_le(X_INTRODUCED_180_,[X_INTRODUCED_46_,X_INTRODUCED_47_],-1);
constraint int_lin_le(X_INTRODUCED_180_,[X_INTRODUCED_48_,X_INTRODUCED_49_],-1);
constraint int_lin_le(X_INTRODUCED_180_,[X_INTRODUCED_50_,X_INTRODUCED_51_],-1);
constraint int_lin_le(X_INTRODUCED_180_,[X_INTRODUCED_52_,X_INTRODUCED_53_],-1);
constraint int_lin_le(X_INTRODUCED_180_,[X_INTRODUCED_54_,X_INTRODUCED_55_],-1);
constraint int_lin_le(X_INTRODUCED_180_,[X_INTRODUCED_56_,X_INTRODUCED_57_],-1);
constraint int_lin_le(X_INTRODUCED_180_,[X_INTRODUCED_58_,X_INTRODUCED_59_],-1);
constraint int_lin_le(X_INTRODUCED_180_,[X_INTRODUCED_60_,X_INTRODUCED_61_],-1);
constraint int_lin_le(X_INTRODUCED_180_,[X_INTRODUCED_62_,X_INTRODUCED_63_],-1);
constraint int_lin_le(X_INTRODUCED_180_,[X_INTRODUCED_64_,X_INTRODUCED_65_],-1);
constraint int_lin_le(X_INTRODUCED_180_,[X_INTRODUCED_66_,X_INTRODUCED_67_],-1);
constraint int_lin_le(X_INTRODUCED_180_,[X_INTRODUCED_68_,X_INTRODUCED_69_],-1);
constraint int_lin_le(X_INTRODUCED_180_,[X_INTRODUCED_70_,X_INTRODUCED_71_],-1);
constraint int_lin_le(X_INTRODUCED_180_,[X_INTRODUCED_72_,X_INTRODUCED_73_],-1);
constraint int_lin_le(X_INTRODUCED_180_,[X_INTRODUCED_74_,X_INTRODUCED_75_],-1);
constraint int_lin_le(X_INTRODUCED_180_,[X_INTRODUCED_76_,X_INTRODUCED_77_],-1);
constraint int_lin_le(X_INTRODUCED_180_,[X_INTRODUCED_78_,X_INTRODUCED_79_],-1);
constraint array_var_int_element(X_INTRODUCED_183_,X_INTRODUCED_181_,1);
constraint array_var_int_element(X_INTRODUCED_185_,X_INTRODUCED_181_,1);
constraint array_var_int_element(X_INTRODUCED_187_,X_INTRODUCED_181_,1);
constraint array_var_int_element(X_INTRODUCED_189_,X_INTRODUCED_181_,1);
constraint array_var_int_element(X_INTRODUCED_191_,X_INTRODUCED_181_,1);
constraint array_var_int_element(X_INTRODUCED_193_,X_INTRODUCED_181_,2);
constraint array_var_int_element(X_INTRODUCED_195_,X_INTRODUCED_181_,2);
constraint array_var_int_element(X_INTRODUCED_197_,X_INTRODUCED_181_,2);
constraint array_var_int_element(X_INTRODUCED_199_,X_INTRODUCED_181_,2);
constraint array_var_int_element(X_INTRODUCED_201_,X_INTRODUCED_181_,2);
constraint array_var_int_element(X_INTRODUCED_203_,X_INTRODUCED_181_,3);
constraint array_var_int_element(X_INTRODUCED_205_,X_INTRODUCED_181_,3);
constraint array_var_int_element(X_INTRODUCED_207_,X_INTRODUCED_181_,3);
constraint array_var_int_element(X_INTRODUCED_209_,X_INTRODUCED_181_,3);
constraint array_var_int_element(X_INTRODUCED_211_,X_INTRODUCED_181_,3);
constraint array_var_int_element(X_INTRODUCED_213_,X_INTRODUCED_181_,4);
constraint array_var_int_element(X_INTRODUCED_215_,X_INTRODUCED_181_,4);
constraint array_var_int_element(X_INTRODUCED_217_,X_INTRODUCED_181_,4);
constraint array_var_int_element(X_INTRODUCED_219_,X_INTRODUCED_181_,4);
constraint array_var_int_element(X_INTRODUCED_221_,X_INTRODUCED_181_,4);
constraint array_var_int_element(X_INTRODUCED_223_,X_INTRODUCED_181_,5);
constraint array_var_int_element(X_INTRODUCED_225_,X_INTRODUCED_181_,5);
constraint array_var_int_element(X_INTRODUCED_227_,X_INTRODUCED_181_,5);
constraint array_var_int_element(X_INTRODUCED_229_,X_INTRODUCED_181_,5);
constraint array_var_int_element(X_INTRODUCED_231_,X_INTRODUCED_181_,5);
constraint array_var_int_element(X_INTRODUCED_233_,X_INTRODUCED_181_,6);
constraint array_var_int_element(X_INTRODUCED_235_,X_INTRODUCED_181_,6);
constraint array_var_int_element(X_INTRODUCED_237_,X_INTRODUCED_181_,6);
constraint array_var_int_element(X_INTRODUCED_239_,X_INTRODUCED_181_,6);
constraint array_var_int_element(X_INTRODUCED_241_,X_INTRODUCED_181_,6);
constraint array_var_int_element(X_INTRODUCED_243_,X_INTRODUCED_181_,7);
constraint array_var_int_element(X_INTRODUCED_245_,X_INTRODUCED_181_,7);
constraint array_var_int_element(X_INTRODUCED_247_,X_INTRODUCED_181_,7);
constraint array_var_int_element(X_INTRODUCED_249_,X_INTRODUCED_181_,7);
constraint array_var_int_element(X_INTRODUCED_251_,X_INTRODUCED_181_,7);
constraint array_var_int_element(X_INTRODUCED_253_,X_INTRODUCED_181_,8);
constraint array_var_int_element(X_INTRODUCED_255_,X_INTRODUCED_181_,8);
constraint array_var_int_element(X_INTRODUCED_257_,X_INTRODUCED_181_,8);
constraint array_var_int_element(X_INTRODUCED_259_,X_INTRODUCED_181_,8);
constraint array_var_int_element(X_INTRODUCED_261_,X_INTRODUCED_181_,8);
constraint int_lin_eq([1,10,-1],[X_INTRODUCED_1_,X_INTRODUCED_0_,X_INTRODUCED_183_],10):: domain:: defines_var(X_INTRODUCED_183_);
constraint int_lin_eq([1,10,-1],[X_INTRODUCED_3_,X_INTRODUCED_2_,X_INTRODUCED_185_],10):: domain:: defines_var(X_INTRODUCED_185_);
constraint int_lin_eq([1,10,-1],[X_INTRODUCED_5_,X_INTRODUCED_4_,X_INTRODUCED_187_],10):: domain:: defines_var(X_INTRODUCED_187_);
constraint int_lin_eq([1,10,-1],[X_INTRODUCED_7_,X_INTRODUCED_6_,X_INTRODUCED_189_],10):: domain:: defines_var(X_INTRODUCED_189_);
constraint int_lin_eq([1,10,-1],[X_INTRODUCED_9_,X_INTRODUCED_8_,X_INTRODUCED_191_],10):: domain:: defines_var(X_INTRODUCED_191_);
constraint int_lin_eq([1,10,-1],[X_INTRODUCED_11_,X_INTRODUCED_10_,X_INTRODUCED_193_],10):: domain:: defines_var(X_INTRODUCED_193_);
constraint int_lin_eq([1,10,-1],[X_INTRODUCED_13_,X_INTRODUCED_12_,X_INTRODUCED_195_],10):: domain:: defines_var(X_INTRODUCED_195_);
constraint int_lin_eq([1,10,-1],[X_INTRODUCED_15_,X_INTRODUCED_14_,X_INTRODUCED_197_],10):: domain:: defines_var(X_INTRODUCED_197_);
constraint int_lin_eq([1,10,-1],[X_INTRODUCED_17_,X_INTRODUCED_16_,X_INTRODUCED_199_],10):: domain:: defines_var(X_INTRODUCED_199_);
constraint int_lin_eq([1,10,-1],[X_INTRODUCED_19_,X_INTRODUCED_18_,X_INTRODUCED_201_],10):: domain:: defines_var(X_INTRODUCED_201_);
constraint int_lin_eq([1,10,-1],[X_INTRODUCED_21_,X_INTRODUCED_20_,X_INTRODUCED_203_],10):: domain:: defines_var(X_INTRODUCED_203_);
constraint int_lin_eq([1,10,-1],[X_INTRODUCED_23_,X_INTRODUCED_22_,X_INTRODUCED_205_],10):: domain:: defines_var(X_INTRODUCED_205_);
constraint int_lin_eq([1,10,-1],[X_INTRODUCED_25_,X_INTRODUCED_24_,X_INTRODUCED_207_],10):: domain:: defines_var(X_INTRODUCED_207_);
constraint int_lin_eq([1,10,-1],[X_INTRODUCED_27_,X_INTRODUCED_26_,X_INTRODUCED_209_],10):: domain:: defines_var(X_INTRODUCED_209_);
constraint int_lin_eq([1,10,-1],[X_INTRODUCED_29_,X_INTRODUCED_28_,X_INTRODUCED_211_],10):: domain:: defines_var(X_INTRODUCED_211_);
constraint int_lin_eq([1,10,-1],[X_INTRODUCED_31_,X_INTRODUCED_30_,X_INTRODUCED_213_],10):: domain:: defines_var(X_INTRODUCED_213_);
constraint int_lin_eq([1,10,-1],[X_INTRODUCED_33_,X_INTRODUCED_32_,X_INTRODUCED_215_],10):: domain:: defines_var(X_INTRODUCED_215_);
constraint int_lin_eq([1,10,-1],[X_INTRODUCED_35_,X_INTRODUCED_34_,X_INTRODUCED_217_],10):: domain:: defines_var(X_INTRODUCED_217_);
constraint int_lin_eq([1,10,-1],[X_INTRODUCED_37_,X_INTRODUCED_36_,X_INTRODUCED_219_],10):: domain:: defines_var(X_INTRODUCED_219_);
constraint int_lin_eq([1,10,-1],[X_INTRODUCED_39_,X_INTRODUCED_38_,X_INTRODUCED_221_],10):: domain:: defines_var(X_INTRODUCED_221_);
constraint int_lin_eq([1,10,-1],[X_INTRODUCED_41_,X_INTRODUCED_40_,X_INTRODUCED_223_],10):: domain:: defines_var(X_INTRODUCED_223_);
constraint int_lin_eq([1,10,-1],[X_INTRODUCED_43_,X_INTRODUCED_42_,X_INTRODUCED_225_],10):: domain:: defines_var(X_INTRODUCED_225_);
constraint int_lin_eq([1,10,-1],[X_INTRODUCED_45_,X_INTRODUCED_44_,X_INTRODUCED_227_],10):: domain:: defines_var(X_INTRODUCED_227_);
constraint int_lin_eq([1,10,-1],[X_INTRODUCED_47_,X_INTRODUCED_46_,X_INTRODUCED_229_],10):: domain:: defines_var(X_INTRODUCED_229_);
constraint int_lin_eq([1,10,-1],[X_INTRODUCED_49_,X_INTRODUCED_48_,X_INTRODUCED_231_],10):: domain:: defines_var(X_INTRODUCED_231_);
constraint int_lin_eq([1,10,-1],[X_INTRODUCED_51_,X_INTRODUCED_50_,X_INTRODUCED_233_],10):: domain:: defines_var(X_INTRODUCED_233_);
constraint int_lin_eq([1,10,-1],[X_INTRODUCED_53_,X_INTRODUCED_52_,X_INTRODUCED_235_],10):: domain:: defines_var(X_INTRODUCED_235_);
constraint int_lin_eq([1,10,-1],[X_INTRODUCED_55_,X_INTRODUCED_54_,X_INTRODUCED_237_],10):: domain:: defines_var(X_INTRODUCED_237_);
constraint int_lin_eq([1,10,-1],[X_INTRODUCED_57_,X_INTRODUCED_56_,X_INTRODUCED_239_],10):: domain:: defines_var(X_INTRODUCED_239_);
constraint int_lin_eq([1,10,-1],[X_INTRODUCED_59_,X_INTRODUCED_58_,X_INTRODUCED_241_],10):: domain:: defines_var(X_INTRODUCED_241_);
constraint int_lin_eq([1,10,-1],[X_INTRODUCED_61_,X_INTRODUCED_60_,X_INTRODUCED_243_],10):: domain:: defines_var(X_INTRODUCED_243_);
constraint int_lin_eq([1,10,-1],[X_INTRODUCED_63_,X_INTRODUCED_62_,X_INTRODUCED_245_],10):: domain:: defines_var(X_INTRODUCED_245_);
constraint int_lin_eq([1,10,-1],[X_INTRODUCED_65_,X_INTRODUCED_64_,X_INTRODUCED_247_],10):: domain:: defines_var(X_INTRODUCED_247_);
constraint int_lin_eq([1,10,-1],[X_INTRODUCED_67_,X_INTRODUCED_66_,X_INTRODUCED_249_],10):: domain:: defines_var(X_INTRODUCED_249_);
constraint int_lin_eq([1,10,-1],[X_INTRODUCED_69_,X_INTRODUCED_68_,X_INTRODUCED_251_],10):: domain:: defines_var(X_INTRODUCED_251_);
constraint int_lin_eq([1,10,-1],[X_INTRODUCED_71_,X_INTRODUCED_70_,X_INTRODUCED_253_],10):: domain:: defines_var(X_INTRODUCED_253_);
constraint int_lin_eq([1,10,-1],[X_INTRODUCED_73_,X_INTRODUCED_72_,X_INTRODUCED_255_],10):: domain:: defines_var(X_INTRODUCED_255_);
constraint int_lin_eq([1,10,-1],[X_INTRODUCED_75_,X_INTRODUCED_74_,X_INTRODUCED_257_],10):: domain:: defines_var(X_INTRODUCED_257_);
constraint int_lin_eq([1,10,-1],[X_INTRODUCED_77_,X_INTRODUCED_76_,X_INTRODUCED_259_],10):: domain:: defines_var(X_INTRODUCED_259_);
constraint int_lin_eq([1,10,-1],[X_INTRODUCED_79_,X_INTRODUCED_78_,X_INTRODUCED_261_],10):: domain:: defines_var(X_INTRODUCED_261_);
solve :: int_search(X_INTRODUCED_263_,first_fail,indomain_min,complete) satisfy;
